50
17658

406 68
240 113
909 779
814 564
519 198
135 874
590 639
624 248
485 673
830 525
913 744
626 233
893 530
447 601
1 374
169 200
252 838
421 408
479 443
71 72
802 524
33 828
186 942
183 979
273 356
273 767
888 88
4 143
988 84
162 481
564 292
865 742
981 469
601 419
263 868
987 452
558 635
604 196
312 145
361 692
914 909
843 760
474 655
41 462
315 939
233 580
809 205
150 665
455 391
335 746
